WARNING: for repeatability, setting FPU to use double precision
Reading from standard input... Use '--help' for help.
============================[ Problem Statistics ]=============================
|                                                                             |
|  Number of variables:          8000                                         |
|  Number of clauses:           65462                                         |
|  Parse time:                   0.01 s                                       |
|  Eliminated clauses:           0.01 Mb                                      |
|  Simplification time:          0.02 s                                       |
|                                                                             |
LBD Based Clause Deletion : 1
Rapid Deletion : 1
Almost Conflict : 1
Anti Exploration : 1
============================[ Search Statistics ]==============================
| Conflicts |          ORIGINAL         |          LEARNT          | Progress |
|           |    Vars  Clauses Literals |    Limit  Clauses Lit/Cl |          |
===============================================================================
|       100 |    1010     6522    19486 |     2000      100     30 | 72.375 % |
|       250 |    1010     6522    19486 |     2000      250     24 | 72.375 % |
===============================================================================
restarts              : 3
conflicts             : 268            (10718 /sec)
decisions             : 878            (0.00 % random) (35114 /sec)
propagations          : 18692          (747560 /sec)
conflict literals     : 6932           (3.90 % deleted)
actual reward         : 0.189683
Memory used           : 11.00 MB
CPU time              : 0.025004 s

SATISFIABLE
